103  103  103  103  -1  
74  74  74  74  -1  
88  88  88  88  -1  
141  141  141  141  -1  
94  94  94  94  -1  
132  132  132  132  -1  
165  165  165  165  -1  
98  98  98  98  -1  
93  93  93  93  -1  
148  148  148  148  -1  
96  96  96  96  -1  
84  84  84  84  -1  
108  108  108  108  -1  
80  80  80  80  -1  
88  88  88  88  -1  
